42
43
44
61
60
73
90
91
95
96
111
110
109
108
115
119
116
120
117
128
127
126
125
131
129
122
103
104
97
86
85
84
82
81
78
87
92
94
99
107
113
124
121
118
130
123
114
105
112
98
89
74
17
16
15
14
6
7
1
12
5
13
18
25
53
64
68
75
77
93
100
101
106
102
88
70
66
69
65
62
56
57
52
51
50
32
31
20
30
29
28
19
27
26
45
46
54
55
47
48
49
33
21
34
35
36
37
38
58
63
67
71
76
79
83
80
72
59
40
39
23
22
8
2
3
9
10
4
11
24
